
Gurobi 11.0.2 (win64) logging started Tue Nov 26 03:08:29 2024

Set parameter LogFile to value ".\Experiments\Verification_16_eps0.0001\Logs\vit_12_2_6_12_i4_r1_c4.log"
Set parameter TimeLimit to value 43200
Gurobi Optimizer version 11.0.2 build v11.0.2rc0 (win64 - Windows 10.0 (19045.2))

CPU model: Intel(R) Core(TM) i7-10750H CPU @ 2.60GHz, instruction set [SSE2|AVX|AVX2]
Thread count: 6 physical cores, 12 logical processors, using up to 12 threads

Optimize a model with 7383 rows, 7591 columns and 28506 nonzeros
Model fingerprint: 0x0c3e58e4
Model has 2150 quadratic constraints
Model has 420 general constraints
Variable types: 7291 continuous, 300 integer (300 binary)
Coefficient statistics:
  Matrix range     [1e-05, 2e+02]
  QMatrix range    [1e+00, 1e+00]
  QLMatrix range   [1e+00, 1e+00]
  Objective range  [1e+00, 1e+00]
  Bounds range     [4e-05, 2e+03]
  RHS range        [4e-05, 6e+02]
  QRHS range       [1e-06, 1e-06]
Presolve removed 4124 rows and 3920 columns
Presolve time: 0.08s
Presolved: 11867 rows, 3672 columns, 39468 nonzeros
Presolved model has 1883 bilinear constraint(s)
Presolved model has 268 nonlinear constraint(s)

Solving non-convex MINLP

Variable types: 3444 continuous, 228 integer (226 binary)

Root relaxation: objective 7.456083e+01, 5520 iterations, 0.58 seconds (0.84 work units)

    Nodes    |    Current Node    |     Objective Bounds      |     Work
 Expl Unexpl |  Obj  Depth IntInf | Incumbent    BestBd   Gap | It/Node Time

     0     0   74.56083    0 1461          -   74.56083      -     -    1s
     0     0   74.56083    0 1403          -   74.56083      -     -    2s
     0     0   74.56083    0 1382          -   74.56083      -     -    3s

Cutting planes:
  Learned: 7
  MIR: 5
  Flow cover: 6
  RLT: 119

Explored 1 nodes (11667 simplex iterations) in 3.12 seconds (3.76 work units)
Thread count was 12 (of 12 available processors)

Solution count 0

Solve interrupted
Best objective -, best bound 7.456083208295e+01, gap -
